100
128
24
8
42
24
8
2
31
41
45
16
4
45
12
9
51
6
30
22
36
24
8
16
32
18
16
36
21
1
14
38
4
15
20
12
8
2
2
2
12
21
9
5
14
21
4
2
5
18
8
17
32
9
10
49
26
9
35
17
10
17
24
5
13
20
10
12
8
10
12
16
9
13
28
34
40
20
11
10
21
13
14
23
16
45
21
25
28
54
44
45
43
4
36
63
64
34
3
49
64
64